c Linia zaczynajaca sie od c jest komentarzem
c Przyklad sieci z kosztami - plik plik_z_danymi.gr
c
p sp 6 8
c p (problem) sp (shortest path)
c siec zawiera 6 wierzcholkow i 8 lukow
c wierzcholki ponumerowane sa od 1 do 6
c ...
c ...
a 1 2 17
c luk z wierzcholka 1 do wierzcholka 2 o koszcie 17
c
a 1 3 10
a 2 4 2
a 3 5 0
a 4 3 0
a 4 6 3
a 5 2 0
a 5 6 20
